     Program PWSCF v.7.0 starts on 14Mar2022 at 20:41:57

     Reading input from pt.scf.in

     Current dimensions of program PWSCF are:
     Max number of different atomic species (ntypx) = 10
     Max number of k-points (npk) =  40000
     Max angular momentum in pseudopotentials (lmaxx) =  4

     Subspace diagonalization in iterative solution of the eigenvalue problem:
     a serial algorithm will be used

     Using Slab Decomposition

     bravais-lattice index     =            4
     lattice parameter (alat)  =       8.1000  a.u.
     unit-cell volume          =     736.3863 (a.u.)^3
     number of atoms/cell      =            2
     number of atomic types    =            1
     number of electrons       =        32.00
     number of Kohn-Sham states=           20
     kinetic-energy cutoff     =      20.0000  Ry
     charge density cutoff     =      80.0000  Ry
     scf convergence threshold =      1.0E-06
     mixing beta               =       0.7000
     number of iterations used =            8  plain     mixing
     Exchange-correlation=  SLA  PW   PBX  PBC
                           (   1   4   3   4   0   0   0)

     celldm(1)=   8.100000  celldm(2)=   0.000000  celldm(3)=   1.600000
     celldm(4)=   0.000000  celldm(5)=   0.000000  celldm(6)=   0.000000

     crystal axes: (cart. coord. in units of alat)
               a(1) = (   1.000000   0.000000   0.000000 )
               a(2) = (  -0.500000   0.866025   0.000000 )
               a(3) = (   0.000000   0.000000   1.600000 )

     reciprocal axes: (cart. coord. in units 2 pi/alat)
               b(1) = (  1.000000  0.577350 -0.000000 )
               b(2) = (  0.000000  1.154701  0.000000 )
               b(3) = (  0.000000 -0.000000  0.625000 )

     PseudoPot. # 1 for Pt read from file:
     /Users/vinhtran/Documents/GitHub/DFT/Energy-Lattice-Constant/Platinum/pt_pbe_v1.4.uspp.F.UPF
     MD5 check sum: f09d6de1a584b5a045c4fc126da2d0c4
     Pseudo is Ultrasoft + core correction, Zval = 16.0
     Generated by new atomic code, or converted to UPF format
     Using radial grid of  985 points,  6 beta functions with:
                l(1) =   0
                l(2) =   0
                l(3) =   1
                l(4) =   1
                l(5) =   2
                l(6) =   2
     Q(r) pseudized with  8 coefficients,  rinner =    1.300   1.300   1.300
                                                       1.300   1.300

     atomic species   valence    mass     pseudopotential
        Pt            16.00   195.08400     Pt( 1.00)

     24 Sym. Ops., with inversion, found (12 have fractional translation)

   Cartesian axes

     site n.     atom                  positions (alat units)
         1           Pt  tau(   1) = (  -0.0000000   0.5773503   0.4000000  )
         2           Pt  tau(   2) = (   0.5000000   0.2886751   1.2000000  )

     number of k points=    36  Gaussian smearing, width (Ry)=  0.0600
                       cart. coord. in units 2pi/alat
        k(    1) = (   0.0833333   0.1443376   0.0520833), wk =   0.0370370
        k(    2) = (   0.0833333   0.1443376   0.1562500), wk =   0.0370370
        k(    3) = (   0.0833333   0.1443376   0.2604167), wk =   0.0370370
        k(    4) = (   0.0833333   0.3367877   0.0520833), wk =   0.0740741
        k(    5) = (   0.0833333   0.3367877   0.1562500), wk =   0.0740741
        k(    6) = (   0.0833333   0.3367877   0.2604167), wk =   0.0740741
        k(    7) = (   0.0833333   0.5292377   0.0520833), wk =   0.0740741
        k(    8) = (   0.0833333   0.5292377   0.1562500), wk =   0.0740741
        k(    9) = (   0.0833333   0.5292377   0.2604167), wk =   0.0740741
        k(   10) = (   0.0833333  -0.4330127   0.0520833), wk =   0.0740741
        k(   11) = (   0.0833333  -0.4330127   0.1562500), wk =   0.0740741
        k(   12) = (   0.0833333  -0.4330127   0.2604167), wk =   0.0740741
        k(   13) = (   0.0833333  -0.2405626   0.0520833), wk =   0.0740741
        k(   14) = (   0.0833333  -0.2405626   0.1562500), wk =   0.0740741
        k(   15) = (   0.0833333  -0.2405626   0.2604167), wk =   0.0740741
        k(   16) = (   0.0833333  -0.0481125   0.0520833), wk =   0.0370370
        k(   17) = (   0.0833333  -0.0481125   0.1562500), wk =   0.0370370
        k(   18) = (   0.0833333  -0.0481125   0.2604167), wk =   0.0370370
        k(   19) = (   0.2500000   0.4330127   0.0520833), wk =   0.0370370
        k(   20) = (   0.2500000   0.4330127   0.1562500), wk =   0.0370370
        k(   21) = (   0.2500000   0.4330127   0.2604167), wk =   0.0370370
        k(   22) = (   0.2500000   0.6254628   0.0520833), wk =   0.0740741
        k(   23) = (   0.2500000   0.6254628   0.1562500), wk =   0.0740741
        k(   24) = (   0.2500000   0.6254628   0.2604167), wk =   0.0740741
        k(   25) = (   0.2500000  -0.3367877   0.0520833), wk =   0.0740741
        k(   26) = (   0.2500000  -0.3367877   0.1562500), wk =   0.0740741
        k(   27) = (   0.2500000  -0.3367877   0.2604167), wk =   0.0740741
        k(   28) = (   0.2500000  -0.1443376   0.0520833), wk =   0.0370370
        k(   29) = (   0.2500000  -0.1443376   0.1562500), wk =   0.0370370
        k(   30) = (   0.2500000  -0.1443376   0.2604167), wk =   0.0370370
        k(   31) = (   0.4166667   0.7216878   0.0520833), wk =   0.0370370
        k(   32) = (   0.4166667   0.7216878   0.1562500), wk =   0.0370370
        k(   33) = (   0.4166667   0.7216878   0.2604167), wk =   0.0370370
        k(   34) = (   0.4166667  -0.2405626   0.0520833), wk =   0.0370370
        k(   35) = (   0.4166667  -0.2405626   0.1562500), wk =   0.0370370
        k(   36) = (   0.4166667  -0.2405626   0.2604167), wk =   0.0370370

     Check: negative core charge=   -0.000408

     Initial potential from superposition of free atoms

     starting charge      31.0000, renormalised to      32.0000

     negative rho (up, down):  3.807E-01 0.000E+00
     Starting wfcs are   24 randomized atomic wfcs

     Self-consistent Calculation

     iteration #  1     ecut=    20.00 Ry     beta= 0.70
     Davidson diagonalization with overlap
     ethr =  1.00E-02,  avg # of iterations =  2.0

     negative rho (up, down):  3.372E-01 0.000E+00

     total energy              =    -416.56824642 Ry
     estimated scf accuracy    <       5.86592079 Ry

[...]

     total energy              =    -420.01424552 Ry
     estimated scf accuracy    <       0.00000129 Ry

     iteration # 11     ecut=    20.00 Ry     beta= 0.70
     Davidson diagonalization with overlap
     ethr =  4.05E-09,  avg # of iterations =  2.0

     negative rho (up, down):  3.831E-01 0.000E+00

     End of self-consistent calculation

          k = 0.0833 0.1443 0.0521 (  1111 PWs)   bands (ev):

   -49.6338 -49.6182 -49.6110 -49.6099 -49.5774 -49.5704  -0.3914   0.6374
     0.8843   0.9674   0.9783   1.0212   1.0471   1.0596   1.1055   1.2193
     1.2937   2.3935   4.8120   9.2349

[...]

          k = 0.4167-0.2406 0.2604 (  1119 PWs)   bands (ev):

   -49.6456 -49.6346 -49.6170 -49.6044 -49.5732 -49.5597   0.5678   0.6696
     0.7816   0.8179   1.0208   1.1367   1.2387   1.2632   1.3216   1.3354
     2.0791   2.4347   4.9453   5.4099

     the Fermi energy is     1.8680 ev

!    total energy              =    -420.01424573 Ry
     estimated scf accuracy    <          1.8E-09 Ry
     smearing contrib. (-TS)   =      -0.16301034 Ry
     internal energy E=F+TS    =    -419.85123540 Ry

     The total energy is F=E-TS. E is the sum of the following terms:
     one-electron contribution =    -215.08245592 Ry
     hartree contribution      =     114.20676497 Ry
     xc contribution           =    -112.67280220 Ry
     ewald contribution        =    -206.30274226 Ry

     convergence has been achieved in  11 iterations

     Writing all to output data dir /Users/vinhtran/Documents/GitHub/DFT/Energy-Lattice-Constant/Platinum/pt.save/

     General routines

     Parallel routines

   This run was terminated on:  20:42:18  14Mar2022

   JOB DONE.