     Program PWSCF v.7.0 starts on 18Mar2022 at 10:59:21

     Reading input from si.scf.lattice_relax.in

     Current dimensions of program PWSCF are:
     Max number of different atomic species (ntypx) = 10
     Max number of k-points (npk) =  40000
     Max angular momentum in pseudopotentials (lmaxx) =  4

     Subspace diagonalization in iterative solution of the eigenvalue problem:
     a serial algorithm will be used

     Using Slab Decomposition

     bravais-lattice index     =            2
     lattice parameter (alat)  =      12.0000  a.u.
     unit-cell volume          =     432.0000 (a.u.)^3
     number of atoms/cell      =            2
     number of atomic types    =            1
     number of electrons       =         8.00
     number of Kohn-Sham states=            4
     kinetic-energy cutoff     =      30.0000  Ry
     charge density cutoff     =     120.0000  Ry
     scf convergence threshold =      1.0E-08
     mixing beta               =       0.7000
     number of iterations used =            8  plain     mixing
     energy convergence thresh.=      1.0E-05
     force convergence thresh. =      1.0E-04
     press convergence thresh. =      5.0E-01
     Exchange-correlation= PBE
                           (   1   4   3   4   0   0   0)
     nstep                     =           50

     celldm(1)=  12.000000  celldm(2)=   0.000000  celldm(3)=   0.000000
     celldm(4)=   0.000000  celldm(5)=   0.000000  celldm(6)=   0.000000

     crystal axes: (cart. coord. in units of alat)
               a(1) = (  -0.500000   0.000000   0.500000 )
               a(2) = (   0.000000   0.500000   0.500000 )
               a(3) = (  -0.500000   0.500000   0.000000 )

     reciprocal axes: (cart. coord. in units 2 pi/alat)
               b(1) = ( -1.000000 -1.000000  1.000000 )
               b(2) = (  1.000000  1.000000  1.000000 )
               b(3) = ( -1.000000  1.000000 -1.000000 )

     PseudoPot. # 1 for Si read from file:
     /Users/vinhtran/Documents/GitHub/DFT/pseudos/Si.pbe-n-rrkjus_psl.1.0.0.UPF
     MD5 check sum: 0b0bb1205258b0d07b9f9672cf965d36
     Pseudo is Ultrasoft + core correction, Zval =  4.0
     Generated using "atomic" code by A. Dal Corso  v.5.1
     Using radial grid of 1141 points,  6 beta functions with:
                l(1) =   0
                l(2) =   0
                l(3) =   1
                l(4) =   1
                l(5) =   2
                l(6) =   2
     Q(r) pseudized with 0 coefficients

     atomic species   valence    mass     pseudopotential
        Si             4.00    28.08600     Si( 1.00)

     48 Sym. Ops., with inversion, found (24 have fractional translation)

   Cartesian axes

     site n.     atom                  positions (alat units)
         1           Si  tau(   1) = (   0.0000000   0.0000000   0.0000000  )
         2           Si  tau(   2) = (   0.2500000   0.2500000   0.2500000  )

     number of k points=     8
                       cart. coord. in units 2pi/alat
        k(    1) = (   0.0000000   0.0000000   0.0000000), wk =   0.0312500
        k(    2) = (  -0.2500000   0.2500000  -0.2500000), wk =   0.2500000
        k(    3) = (   0.5000000  -0.5000000   0.5000000), wk =   0.1250000
        k(    4) = (   0.0000000   0.5000000   0.0000000), wk =   0.1875000
        k(    5) = (   0.7500000  -0.2500000   0.7500000), wk =   0.7500000
        k(    6) = (   0.5000000   0.0000000   0.5000000), wk =   0.3750000
        k(    7) = (   0.0000000  -1.0000000   0.0000000), wk =   0.0937500
        k(    8) = (  -0.5000000  -1.0000000   0.0000000), wk =   0.1875000

     Check: negative core charge=   -0.000004

     Initial potential from superposition of free atoms

     starting charge       7.9989, renormalised to       8.0000
     Starting wfcs are    8 randomized atomic wfcs

     Self-consistent Calculation

     iteration #  1     ecut=    30.00 Ry     beta= 0.70
     Davidson diagonalization with overlap
     ethr =  1.00E-02,  avg # of iterations =  1.5

     Threshold (ethr) on eigenvalues was too large:
     Diagonalizing with lowered threshold

     Davidson diagonalization with overlap
     ethr =  3.09E-04,  avg # of iterations =  2.1

     total energy              =     -22.71456859 Ry
     estimated scf accuracy    <       0.02694883 Ry

[...]

     End of self-consistent calculation

          k = 0.0000 0.0000 0.0000 (  1243 PWs)   bands (ev):

    -7.0803   1.1844   2.2731   2.2731

          k =-0.2500 0.2500-0.2500 (  1203 PWs)   bands (ev):

[...]

     highest occupied level (ev):     2.2731

!    total energy              =     -22.71517056 Ry
     estimated scf accuracy    <          7.2E-10 Ry

     The total energy is the sum of the following terms:
     one-electron contribution =       1.90754222 Ry
     hartree contribution      =       1.58906909 Ry
     xc contribution           =     -11.84698704 Ry
     ewald contribution        =     -14.36479483 Ry

     convergence has been achieved in   6 iterations

     Forces acting on atoms (cartesian axes, Ry/au):

     atom    1 type  1   force =     0.00000000    0.00000000    0.00000000
     atom    2 type  1   force =    -0.00000000   -0.00000000   -0.00000000

     Total force =     0.000000     Total SCF correction =     0.000000

     Computing stress (Cartesian axis) and pressure

          total   stress  (Ry/bohr**3)                   (kbar)     P=     -135.17
  -0.00091889  -0.00000000   0.00000000         -135.17       -0.00        0.00
  -0.00000000  -0.00091889  -0.00000000           -0.00     -135.17       -0.00
   0.00000000   0.00000000  -0.00091889            0.00        0.00     -135.17

     BFGS Geometry Optimization
     Energy error            =      0.0E+00 Ry
     Gradient error          =      1.5E-33 Ry/Bohr
     Cell gradient error     =      1.4E+02 kbar

     number of scf cycles    =   1
     number of bfgs steps    =   0

     enthalpy           new  =     -22.7151705637 Ry

     new trust radius        =       0.0954940576 bohr
ibrav =      2
 celldm(1) =     11.72433240
Input lattice vectors:
    -0.48851385     0.00000000     0.48851385
    -0.00000000     0.48851385     0.48851385
    -0.48851385     0.48851385    -0.00000000
New lattice vectors in INITIAL alat:
    -0.48851385     0.00000000     0.48851385
     0.00000000     0.48851385     0.48851385
    -0.48851385     0.48851385     0.00000000
New lattice vectors in NEW alat (for information only):
    -0.50000000     0.00000000     0.50000000
     0.00000000     0.50000000     0.50000000
    -0.50000000     0.50000000     0.00000000
Discrepancy in bohr =     0.000000    0.000000    0.000000

Atomic positions rescaled with new alat:
Si            0.0000000000        0.0000000000        0.0000000000
Si            0.2500000000        0.2500000000        0.2500000000
     new conv_thr            =       0.0000000100 Ry

     new unit-cell volume =    402.90660 a.u.^3 (    59.70460 Ang^3 )
     density =      1.56229 g/cm^3

CELL_PARAMETERS (alat= 12.00000000)
  -0.488513850   0.000000000   0.488513850
   0.000000000   0.488513850   0.488513850
  -0.488513850   0.488513850   0.000000000

ATOMIC_POSITIONS (alat)
Si            0.0000000000        0.0000000000        0.0000000000
Si            0.2442569250        0.2442569250        0.2442569250

     Writing config-only to output data dir ./outdir/silicon.save/
     NEW-OLD atomic charge density approx. for the potential

     Check: negative core charge=   -0.000002
     extrapolated charge    7.42241, renormalised to    8.00000

[...]

     Energy error            =      2.7E-02 Ry
     Gradient error          =      3.4E-32 Ry/Bohr
     Cell gradient error     =      1.3E+02 kbar

[...]

     enthalpy           old  =     -22.7151705637 Ry
     enthalpy           new  =     -22.7419040012 Ry

     CASE: enthalpy          _new < enthalpy          _old

     WARNING: bfgs curvature condition failed, Theta= 0.844
     new trust radius        =       0.1415862387 bohr
ibrav =      2
 celldm(1) =     11.31083100
Input lattice vectors:
    -0.47128463    -0.00000000     0.47128463
    -0.00000000     0.47128463     0.47128463
    -0.47128463     0.47128463     0.00000000
New lattice vectors in INITIAL alat:
    -0.47128463     0.00000000     0.47128463
     0.00000000     0.47128463     0.47128463
    -0.47128463     0.47128463     0.00000000
New lattice vectors in NEW alat (for information only):
    -0.50000000     0.00000000     0.50000000
     0.00000000     0.50000000     0.50000000
    -0.50000000     0.50000000     0.00000000
Discrepancy in bohr =     0.000000    0.000000    0.000000

[...]

     Energy error            =      9.2E-05 Ry
     Gradient error          =      8.6E-32 Ry/Bohr
     Cell gradient error     =      9.6E-01 kbar

     number of scf cycles    =   7
     number of bfgs steps    =   6

     enthalpy           old  =     -22.8265030946 Ry
     enthalpy           new  =     -22.8265953121 Ry

     CASE: enthalpy          _new < enthalpy          _old

     new trust radius        =       0.0012206762 bohr
ibrav =      2
 celldm(1) =     10.35742991
Input lattice vectors:
    -0.43155958    -0.00000000     0.43155958
     0.00000000     0.43155958     0.43155958
    -0.43155958     0.43155958    -0.00000000
New lattice vectors in INITIAL alat:
    -0.43155958     0.00000000     0.43155958
     0.00000000     0.43155958     0.43155958
    -0.43155958     0.43155958     0.00000000
New lattice vectors in NEW alat (for information only):
    -0.50000000     0.00000000     0.50000000
     0.00000000     0.50000000     0.50000000
    -0.50000000     0.50000000     0.00000000
Discrepancy in bohr =     0.000000    0.000000    0.000000

Atomic positions rescaled with new alat:
Si            0.0000000000        0.0000000000        0.0000000000
Si            0.2500000000        0.2500000000        0.2500000000
     new conv_thr            =            1.0E-10 Ry

     new unit-cell volume =    277.77683 a.u.^3 (    41.16228 Ang^3 )
     density =      2.26605 g/cm^3

[...]

ATOMIC_POSITIONS (alat)
Si            0.0000000000        0.0000000000        0.0000000000
Si            0.2157797898        0.2157797898        0.2157797898

     Writing config-only to output data dir ./outdir/silicon.save/
     NEW-OLD atomic charge density approx. for the potential

     Check: negative core charge=   -0.000003
     extrapolated charge    7.99121, renormalised to    8.00000

[...]

     Threshold (ethr) on eigenvalues was too large:
     Diagonalizing with lowered threshold

     Davidson diagonalization with overlap
     ethr =  6.06E-09,  avg # of iterations =  2.0

[...]

     Energy error            =      9.8E-07 Ry
     Gradient error          =      8.1E-32 Ry/Bohr
     Cell gradient error     =      2.0E-02 kbar
ibrav =      2
 celldm(1) =     10.35742991
Input lattice vectors:
    -0.43155958     0.00000000     0.43155958
     0.00000000     0.43155958     0.43155958
    -0.43155958     0.43155958     0.00000000
New lattice vectors in INITIAL alat:
    -0.43155958     0.00000000     0.43155958
     0.00000000     0.43155958     0.43155958
    -0.43155958     0.43155958     0.00000000
New lattice vectors in NEW alat (for information only):
    -0.50000000     0.00000000     0.50000000
     0.00000000     0.50000000     0.50000000
    -0.50000000     0.50000000     0.00000000
Discrepancy in bohr =     0.000000    0.000000    0.000000

Atomic positions rescaled with new alat:
Si            0.0000000000        0.0000000000        0.0000000000
Si            0.2500000000        0.2500000000        0.2500000000

     bfgs converged in   8 scf cycles and   7 bfgs steps
     (criteria: energy <  1.0E-05 Ry, force <  1.0E-04Ry/Bohr, cell <  5.0E-01kbar)

     End of BFGS Geometry Optimization

     Final enthalpy           =     -22.8265962904 Ry

     File ./outdir/silicon.bfgs deleted, as requested
Begin final coordinates
     new unit-cell volume =    277.77683 a.u.^3 (    41.16228 Ang^3 )
     density =      2.26605 g/cm^3

CELL_PARAMETERS (alat= 12.00000000)
  -0.431559580   0.000000000   0.431559580
   0.000000000   0.431559580   0.431559580
  -0.431559580   0.431559580   0.000000000

ATOMIC_POSITIONS (alat)
Si            0.0000000000        0.0000000000        0.0000000000
Si            0.2157797898        0.2157797898        0.2157797898
End final coordinates

     Writing config-only to output data dir ./outdir/silicon.save/

     Final scf calculation at the relaxed structure.
     The G-vectors are recalculated for the final unit cell
     Results may differ from those at the preceding step.

     Using Slab Decomposition

     bravais-lattice index     =            2
     lattice parameter (alat)  =      12.0000  a.u.
     unit-cell volume          =     277.7768 (a.u.)^3
     number of atoms/cell      =            2
     number of atomic types    =            1
     number of electrons       =         8.00
     number of Kohn-Sham states=            4
     kinetic-energy cutoff     =      30.0000  Ry
     charge density cutoff     =     120.0000  Ry
     scf convergence threshold =      1.0E-10
     mixing beta               =       0.7000
     number of iterations used =            8  plain     mixing
     press convergence thresh. =      5.0E-01
     Exchange-correlation= PBE
                           (   1   4   3   4   0   0   0)

     celldm(1)=  12.000000  celldm(2)=   0.000000  celldm(3)=   0.000000
     celldm(4)=   0.000000  celldm(5)=   0.000000  celldm(6)=   0.000000

     crystal axes: (cart. coord. in units of alat)
               a(1) = (  -0.431560   0.000000   0.431560 )
               a(2) = (   0.000000   0.431560   0.431560 )
               a(3) = (  -0.431560   0.431560   0.000000 )

     reciprocal axes: (cart. coord. in units 2 pi/alat)
               b(1) = ( -1.158589 -1.158589  1.158589 )
               b(2) = (  1.158589  1.158589  1.158589 )
               b(3) = ( -1.158589  1.158589 -1.158589 )

     PseudoPot. # 1 for Si read from file:
     /Users/vinhtran/Documents/GitHub/DFT/pseudos/Si.pbe-n-rrkjus_psl.1.0.0.UPF
     MD5 check sum: 0b0bb1205258b0d07b9f9672cf965d36
     Pseudo is Ultrasoft + core correction, Zval =  4.0
     Generated using "atomic" code by A. Dal Corso  v.5.1
     Using radial grid of 1141 points,  6 beta functions with:
                l(1) =   0
                l(2) =   0
                l(3) =   1
                l(4) =   1
                l(5) =   2
                l(6) =   2
     Q(r) pseudized with 0 coefficients

     atomic species   valence    mass     pseudopotential
        Si             4.00    28.08600     Si( 1.00)

     48 Sym. Ops., with inversion, found (24 have fractional translation)

   Cartesian axes

     site n.     atom                  positions (alat units)
         1           Si  tau(   1) = (   0.0000000   0.0000000   0.0000000  )
         2           Si  tau(   2) = (   0.2157798   0.2157798   0.2157798  )

     number of k points=     8
                       cart. coord. in units 2pi/alat
        k(    1) = (   0.0000000   0.0000000   0.0000000), wk =   0.0312500
        k(    2) = (  -0.2896471   0.2896471  -0.2896471), wk =   0.2500000
        k(    3) = (   0.5792943  -0.5792943   0.5792943), wk =   0.1250000
        k(    4) = (   0.0000000   0.5792943   0.0000000), wk =   0.1875000
        k(    5) = (   0.8689414  -0.2896471   0.8689414), wk =   0.7500000
        k(    6) = (   0.5792943   0.0000000   0.5792943), wk =   0.3750000
        k(    7) = (   0.0000000  -1.1585886   0.0000000), wk =   0.0937500
        k(    8) = (  -0.5792943  -1.1585886   0.0000000), wk =   0.1875000

     Check: negative core charge=   -0.000004

     Initial potential from superposition of free atoms

     starting charge       7.9989, renormalised to       8.0000
     Starting wfcs are    8 randomized atomic wfcs

     Self-consistent Calculation

[...]

     total energy              =     -22.82646768 Ry
     estimated scf accuracy    <          2.1E-09 Ry

     iteration #  9     ecut=    30.00 Ry     beta= 0.70
     Davidson diagonalization with overlap
     ethr =  2.66E-11,  avg # of iterations =  2.1

     End of self-consistent calculation

[...]

          k = 0.0000-1.1586 0.0000 (   774 PWs)   bands (ev):

[...]

          k =-0.5793-1.1586 0.0000 (   772 PWs)   bands (ev):

    -1.6219  -1.6219   2.2105   2.2105

     highest occupied level (ev):     5.9607

!    total energy              =     -22.82646768 Ry
     estimated scf accuracy    <          6.1E-11 Ry

     The total energy is the sum of the following terms:
     one-electron contribution =       4.95461407 Ry
     hartree contribution      =       1.14876009 Ry
     xc contribution           =     -12.28695462 Ry
     ewald contribution        =     -16.64288722 Ry

     convergence has been achieved in   9 iterations

     Forces acting on atoms (cartesian axes, Ry/au):

     atom    1 type  1   force =     0.00000000    0.00000000    0.00000000
     atom    2 type  1   force =     0.00000000    0.00000000    0.00000000

     Total force =     0.000000     Total SCF correction =     0.000000

     Computing stress (Cartesian axis) and pressure

          total   stress  (Ry/bohr**3)                   (kbar)     P=        0.25
   0.00000169  -0.00000000  -0.00000000            0.25       -0.00       -0.00
  -0.00000000   0.00000169   0.00000000           -0.00        0.25        0.00
  -0.00000000   0.00000000   0.00000169           -0.00        0.00        0.25

     Writing all to output data dir ./outdir/silicon.save/

     General routines

     Parallel routines

   This run was terminated on:  10:59:54  18Mar2022

   JOB DONE.