     Program PWSCF v.7.0 starts on 16Mar2022 at 17:28: 6

     Reading input from cu.scf.in

     Current dimensions of program PWSCF are:
     Max number of different atomic species (ntypx) = 10
     Max number of k-points (npk) =  40000
     Max angular momentum in pseudopotentials (lmaxx) =  4

     Subspace diagonalization in iterative solution of the eigenvalue problem:
     a serial algorithm will be used

     Using Slab Decomposition

     bravais-lattice index     =            4
     lattice parameter (alat)  =       7.2000  a.u.
     unit-cell volume          =     527.8546 (a.u.)^3
     number of atoms/cell      =            2
     number of atomic types    =            1
     number of electrons       =        38.00
     number of Kohn-Sham states=           23
     kinetic-energy cutoff     =      30.0000  Ry
     charge density cutoff     =     120.0000  Ry
     scf convergence threshold =      1.0E-06
     mixing beta               =       0.7000
     number of iterations used =            8  plain     mixing
     Exchange-correlation= SLA  PW   PBE  PBE
                           (   1   4   3   4   0   0   0)

     celldm(1)=   7.200000  celldm(2)=   0.000000  celldm(3)=   1.633000
     celldm(4)=   0.000000  celldm(5)=   0.000000  celldm(6)=   0.000000

     crystal axes: (cart. coord. in units of alat)
               a(1) = (   1.000000   0.000000   0.000000 )
               a(2) = (  -0.500000   0.866025   0.000000 )
               a(3) = (   0.000000   0.000000   1.633000 )

     reciprocal axes: (cart. coord. in units 2 pi/alat)
               b(1) = (  1.000000  0.577350 -0.000000 )
               b(2) = (  0.000000  1.154701  0.000000 )
               b(3) = (  0.000000 -0.000000  0.612370 )

     PseudoPot. # 1 for Cu read from file:
     /Users/vinhtran/Documents/GitHub/DFT/Energy-Lattice-Constant/Copper/Cu_pbe_v1.2.uspp.F.UPF
     MD5 check sum: 6e991ff952a84172a2a52a1c1e996048
     Pseudo is Ultrasoft + core correction, Zval = 19.0
     Generated by new atomic code, or converted to UPF format
     Using radial grid of  867 points,  6 beta functions with:
                l(1) =   0
                l(2) =   0
                l(3) =   1
                l(4) =   1
                l(5) =   2
                l(6) =   2
     Q(r) pseudized with  8 coefficients,  rinner =    1.150   1.150   1.150
                                                       1.150   1.150

     atomic species   valence    mass     pseudopotential
        cu            19.00    63.54600     Cu( 1.00)

      4 Sym. Ops., with inversion, found ( 2 have fractional translation)

   Cartesian axes

     site n.     atom                  positions (alat units)
         1           cu  tau(   1) = (   0.0000000   0.0000000   0.0000000  )
         2           cu  tau(   2) = (   0.1666667   0.2886751   0.5443333  )

     number of k points=    68  Methfessel-Paxton smearing, width (Ry)=  0.0600
                       cart. coord. in units 2pi/alat
        k(    1) = (   0.0000000   0.0000000   0.0000000), wk =   0.0092593
        k(    2) = (   0.0000000   0.0000000   0.1020616), wk =   0.0185185
        k(    3) = (   0.0000000   0.0000000   0.2041233), wk =   0.0185185
        k(    4) = (   0.0000000   0.0000000  -0.3061849), wk =   0.0092593
        k(    5) = (   0.0000000   0.1924501   0.0000000), wk =   0.0370370
        k(    6) = (   0.0000000   0.1924501   0.1020616), wk =   0.0370370
        k(    7) = (   0.0000000   0.1924501   0.2041233), wk =   0.0370370
        k(    8) = (   0.0000000   0.1924501  -0.3061849), wk =   0.0370370
        k(    9) = (   0.0000000   0.3849002   0.0000000), wk =   0.0370370
        k(   10) = (   0.0000000   0.3849002   0.1020616), wk =   0.0370370
        k(   11) = (   0.0000000   0.3849002   0.2041233), wk =   0.0370370
        k(   12) = (   0.0000000   0.3849002  -0.3061849), wk =   0.0370370
        k(   13) = (   0.0000000  -0.5773503   0.0000000), wk =   0.0185185
        k(   14) = (   0.0000000  -0.5773503   0.1020616), wk =   0.0370370
        k(   15) = (   0.0000000  -0.5773503   0.2041233), wk =   0.0370370
        k(   16) = (   0.0000000  -0.5773503  -0.3061849), wk =   0.0185185
        k(   17) = (   0.1666667   0.2886751   0.0000000), wk =   0.0185185
        k(   18) = (   0.1666667   0.2886751   0.1020616), wk =   0.0185185
        k(   19) = (   0.1666667   0.2886751   0.2041233), wk =   0.0185185
        k(   20) = (   0.1666667   0.2886751  -0.3061849), wk =   0.0185185
        k(   21) = (   0.1666667   0.4811252   0.0000000), wk =   0.0370370
        k(   22) = (   0.1666667   0.4811252   0.1020616), wk =   0.0370370
        k(   23) = (   0.1666667   0.4811252   0.2041233), wk =   0.0370370
        k(   24) = (   0.1666667   0.4811252  -0.3061849), wk =   0.0370370
        k(   25) = (   0.3333333   0.5773503   0.0000000), wk =   0.0185185
        k(   26) = (   0.3333333   0.5773503   0.1020616), wk =   0.0185185
        k(   27) = (   0.3333333   0.5773503   0.2041233), wk =   0.0185185
        k(   28) = (   0.3333333   0.5773503  -0.3061849), wk =   0.0185185
        k(   29) = (  -0.1666667   0.0962250   0.0000000), wk =   0.0185185
        k(   30) = (  -0.1666667   0.0962250   0.1020616), wk =   0.0370370
        k(   31) = (  -0.1666667  -0.0962250   0.1020616), wk =   0.0370370
        k(   32) = (  -0.1666667   0.0962250   0.2041233), wk =   0.0370370
        k(   33) = (  -0.1666667  -0.0962250   0.2041233), wk =   0.0370370
        k(   34) = (  -0.1666667   0.0962250  -0.3061849), wk =   0.0185185
        k(   35) = (  -0.3333333   0.1924501   0.0000000), wk =   0.0185185
        k(   36) = (  -0.3333333   0.1924501   0.1020616), wk =   0.0370370
        k(   37) = (  -0.3333333  -0.1924501   0.1020616), wk =   0.0370370
        k(   38) = (  -0.3333333   0.1924501   0.2041233), wk =   0.0370370
        k(   39) = (  -0.3333333  -0.1924501   0.2041233), wk =   0.0370370
        k(   40) = (  -0.3333333   0.1924501  -0.3061849), wk =   0.0185185
        k(   41) = (   0.5000000  -0.2886751   0.0000000), wk =   0.0092593
        k(   42) = (   0.5000000  -0.2886751   0.1020616), wk =   0.0185185
        k(   43) = (   0.5000000  -0.2886751   0.2041233), wk =   0.0185185
        k(   44) = (   0.5000000  -0.2886751  -0.3061849), wk =   0.0092593
        k(   45) = (  -0.1666667   0.2886751   0.0000000), wk =   0.0370370
        k(   46) = (  -0.1666667   0.2886751   0.1020616), wk =   0.0370370
        k(   47) = (  -0.3333333  -0.0000000   0.1020616), wk =   0.0370370
        k(   48) = (  -0.1666667  -0.2886751   0.1020616), wk =   0.0185185
        k(   49) = (  -0.1666667   0.2886751   0.2041233), wk =   0.0370370
        k(   50) = (  -0.3333333  -0.0000000   0.2041233), wk =   0.0370370
        k(   51) = (  -0.1666667  -0.2886751   0.2041233), wk =   0.0185185
        k(   52) = (  -0.1666667   0.2886751  -0.3061849), wk =   0.0370370
        k(   53) = (  -0.3333333   0.3849002   0.0000000), wk =   0.0370370
        k(   54) = (   0.5000000   0.0962250   0.0000000), wk =   0.0370370
        k(   55) = (  -0.3333333   0.3849002   0.1020616), wk =   0.0370370
        k(   56) = (   0.5000000   0.0962250   0.1020616), wk =   0.0370370
        k(   57) = (  -0.5000000  -0.0962250   0.1020616), wk =   0.0370370
        k(   58) = (   0.3333333  -0.3849002   0.1020616), wk =   0.0370370
        k(   59) = (  -0.1666667  -0.4811252   0.1020616), wk =   0.0370370
        k(   60) = (  -0.3333333   0.3849002   0.2041233), wk =   0.0370370
        k(   61) = (   0.5000000   0.0962250   0.2041233), wk =   0.0370370
        k(   62) = (  -0.5000000  -0.0962250   0.2041233), wk =   0.0370370
        k(   63) = (   0.3333333  -0.3849002   0.2041233), wk =   0.0370370
        k(   64) = (  -0.1666667  -0.4811252   0.2041233), wk =   0.0370370
        k(   65) = (  -0.3333333   0.3849002  -0.3061849), wk =   0.0370370
        k(   66) = (   0.5000000   0.0962250  -0.3061849), wk =   0.0370370
        k(   67) = (  -0.3333333   0.5773503   0.1020616), wk =   0.0185185
        k(   68) = (  -0.3333333   0.5773503   0.2041233), wk =   0.0185185

     Check: negative core charge=   -0.000017

     Initial potential from superposition of free atoms

     starting charge      36.0000, renormalised to      38.0000

     negative rho (up, down):  6.293E-05 0.000E+00
     Starting wfcs are   26 randomized atomic wfcs

     Self-consistent Calculation

     iteration #  1     ecut=    30.00 Ry     beta= 0.70
     Davidson diagonalization with overlap
     ethr =  1.00E-02,  avg # of iterations =  4.0

     total energy              =    -787.31727931 Ry
     estimated scf accuracy    <      26.51502141 Ry

[...]

     iteration #  9     ecut=    30.00 Ry     beta= 0.70
     Davidson diagonalization with overlap
     ethr =  5.02E-04,  avg # of iterations =  1.1
     Minimization algorithm failed to find Fermi energy: reverting to bisection
     Possible cause: smearing is larger than the electronic band-gap.

[...]

     iteration # 21     ecut=    30.00 Ry     beta= 0.70
     Davidson diagonalization with overlap
     ethr =  7.38E-06,  avg # of iterations =  3.2
     Minimization algorithm failed to find Fermi energy: reverting to bisection
     Possible cause: smearing is larger than the electronic band-gap.

[...]

     total energy              =    -807.11837166 Ry
     estimated scf accuracy    <       0.00008655 Ry

     iteration # 27     ecut=    30.00 Ry     beta= 0.70
     Davidson diagonalization with overlap
     ethr =  7.19E-08,  avg # of iterations =  2.0

     End of self-consistent calculation

          k = 0.0000 0.0000 0.0000 (  1473 PWs)   bands (ev):

  -109.0327-109.0280 -66.5853 -66.5338 -66.3972 -66.3957 -66.3786 -66.3698
    -1.8385   0.2097   0.2617   0.5260   0.7277   0.8594   0.9258   0.9286
     1.0321   1.0790   1.1513   2.5219   3.5750  10.9077  11.0604

[...]

          k =-0.1667 0.0962 0.0000 (  1457 PWs)   bands (ev):

[...]

          k = 0.5000 0.0962-0.3062 (  1464 PWs)   bands (ev):

[...]

          k =-0.3333 0.5774 0.2041 (  1461 PWs)   bands (ev):

  -109.0331-109.0283 -66.5867 -66.5371 -66.3997 -66.3942 -66.3759 -66.3705
    -0.0404   0.3631   0.3835   0.7400   0.7446   0.9111   0.9523   1.0719
     1.0903   1.0978   2.3836   3.6213   4.5937   4.8751   5.9407

     the Fermi energy is     1.7526 ev

!    total energy              =    -807.11838128 Ry
     estimated scf accuracy    <       0.00000024 Ry
     smearing contrib. (-TS)   =       0.03993161 Ry
     internal energy E=F+TS    =    -807.15831289 Ry

     The total energy is F=E-TS. E is the sum of the following terms:
     one-electron contribution =    -888.96564635 Ry
     hartree contribution      =     449.87216476 Ry
     xc contribution           =     -77.38330882 Ry
     ewald contribution        =    -290.68152248 Ry

     convergence has been achieved in  27 iterations

     Writing all to output data dir /Users/vinhtran/Documents/GitHub/DFT/Energy-Lattice-Constant/Copper/Copper.save/

     General routines

     Parallel routines

   This run was terminated on:  17:30: 1  16Mar2022

   JOB DONE.