     Program PWSCF v.7.0 starts on 21Mar2022 at 21:20:41

     Reading input from Hf.sci.in

     Current dimensions of program PWSCF are:
     Max number of different atomic species (ntypx) = 10
     Max number of k-points (npk) =  40000
     Max angular momentum in pseudopotentials (lmaxx) =  4

     Subspace diagonalization in iterative solution of the eigenvalue problem:
     a serial algorithm will be used

     Using Slab Decomposition

     bravais-lattice index     =            4
     lattice parameter (alat)  =       4.5000  a.u.
     unit-cell volume          =     128.8708 (a.u.)^3
     number of atoms/cell      =            2
     number of atomic types    =            1
     number of electrons       =        24.00
     number of Kohn-Sham states=           16
     kinetic-energy cutoff     =      30.0000  Ry
     charge density cutoff     =     150.0000  Ry
     scf convergence threshold =      1.0E-06
     mixing beta               =       0.7000
     number of iterations used =            8  plain     mixing
     energy convergence thresh.=      1.0E-04
     force convergence thresh. =      1.0E-03
     press convergence thresh. =      5.0E-01
     Exchange-correlation= PBE
                           (   1   4   3   4   0   0   0)
     nstep                     =           50

     celldm(1)=   4.500000  celldm(2)=   0.000000  celldm(3)=   1.633000
     celldm(4)=   0.000000  celldm(5)=   0.000000  celldm(6)=   0.000000

     crystal axes: (cart. coord. in units of alat)
               a(1) = (   1.000000   0.000000   0.000000 )
               a(2) = (  -0.500000   0.866025   0.000000 )
               a(3) = (   0.000000   0.000000   1.633000 )

     reciprocal axes: (cart. coord. in units 2 pi/alat)
               b(1) = (  1.000000  0.577350 -0.000000 )
               b(2) = (  0.000000  1.154701  0.000000 )
               b(3) = (  0.000000 -0.000000  0.612370 )

     PseudoPot. # 1 for Hf read from file:
     /Users/vinhtran/Documents/GitHub/DFT/pseudos/Hf-sp.oncvpsp.upf
     MD5 check sum: 417ed15784afe83d2e06dacf143de3f8
     Pseudo is Norm-conserving + core correction, Zval = 12.0
     Generated using ONCVPSP code by D. R. Hamann
     Using radial grid of 1656 points,  8 beta functions with:
                l(1) =   0
                l(2) =   0
                l(3) =   1
                l(4) =   1
                l(5) =   2
                l(6) =   2
                l(7) =   3
                l(8) =   3

     atomic species   valence    mass     pseudopotential
        Hf            12.00   178.48600     Hf( 1.00)

     24 Sym. Ops., with inversion, found (12 have fractional translation)

   Cartesian axes

     site n.     atom                  positions (alat units)
         1           Hf  tau(   1) = (   0.0000000   0.0000000   0.0000000  )
         2           Hf  tau(   2) = (   0.0000000   0.5773503   0.8165000  )

     number of k points=    12  Methfessel-Paxton smearing, width (Ry)=  0.1000
                       cart. coord. in units 2pi/alat
        k(    1) = (   0.1250000   0.2165064   0.0765462), wk =   0.1250000
        k(    2) = (   0.1250000   0.2165064   0.2296387), wk =   0.1250000
        k(    3) = (   0.1250000   0.5051815   0.0765462), wk =   0.2500000
        k(    4) = (   0.1250000   0.5051815   0.2296387), wk =   0.2500000
        k(    5) = (   0.1250000  -0.3608439   0.0765462), wk =   0.2500000
        k(    6) = (   0.1250000  -0.3608439   0.2296387), wk =   0.2500000
        k(    7) = (   0.1250000  -0.0721688   0.0765462), wk =   0.1250000
        k(    8) = (   0.1250000  -0.0721688   0.2296387), wk =   0.1250000
        k(    9) = (   0.3750000   0.6495191   0.0765462), wk =   0.1250000
        k(   10) = (   0.3750000   0.6495191   0.2296387), wk =   0.1250000
        k(   11) = (   0.3750000  -0.2165064   0.0765462), wk =   0.1250000
        k(   12) = (   0.3750000  -0.2165064   0.2296387), wk =   0.1250000

     Initial potential from superposition of free atoms

     starting charge      23.9963, renormalised to      24.0000
     Starting wfcs are   20 randomized atomic wfcs

     Self-consistent Calculation

     iteration #  1     ecut=    30.00 Ry     beta= 0.70
     Davidson diagonalization with overlap
     ethr =  1.00E-02,  avg # of iterations =  2.2

     Threshold (ethr) on eigenvalues was too large:
     Diagonalizing with lowered threshold

     Davidson diagonalization with overlap
     ethr =  1.49E-04,  avg # of iterations =  2.2

     total energy              =    -224.26453258 Ry
     estimated scf accuracy    <       0.03788302 Ry

[...]

     End of self-consistent calculation

          k = 0.1250 0.2165 0.0765 (   357 PWs)   bands (ev):

   -26.6246 -25.2558   1.2234   4.9139   5.1335   6.7935   7.8280   7.9917
    31.4789  31.4881  32.6207  34.3396  36.1234  36.6280  39.1734  39.5773

[...]

     the Fermi energy is    35.4179 ev

!    total energy              =    -224.27132069 Ry
     estimated scf accuracy    <       0.00000033 Ry
     smearing contrib. (-TS)   =       0.00286795 Ry
     internal energy E=F+TS    =    -224.27418865 Ry

     The total energy is F=E-TS. E is the sum of the following terms:
     one-electron contribution =      30.14234268 Ry
     hartree contribution      =      12.39359409 Ry
     xc contribution           =     -59.33146321 Ry
     ewald contribution        =    -207.47866220 Ry

     convergence has been achieved in   4 iterations

     Forces acting on atoms (cartesian axes, Ry/au):

     atom    1 type  1   force =     0.00000000    0.00000000    0.00000000
     atom    2 type  1   force =     0.00000000   -0.00000000    0.00000000

     Total force =     0.000000     Total SCF correction =     0.000000

     Computing stress (Cartesian axis) and pressure

          total   stress  (Ry/bohr**3)                   (kbar)     P=     3491.38
   0.02294822   0.00000000   0.00000000         3375.80        0.00        0.00
   0.00000000   0.02294822   0.00000000            0.00     3375.80        0.00
   0.00000000   0.00000000   0.02530531            0.00        0.00     3722.54

     BFGS Geometry Optimization
     Energy error            =      0.0E+00 Ry
     Gradient error          =      9.2E-29 Ry/Bohr
     Cell gradient error     =      3.7E+03 kbar

     number of scf cycles    =   1
     number of bfgs steps    =   0

     enthalpy           new  =    -224.2713206935 Ry

     new trust radius        =       0.5000000000 bohr
ibrav =      4
 celldm(1) =      5.39869551
 celldm(3) =      1.66092147
Input lattice vectors:
     1.19971011     0.00000000     0.00000000
    -0.59985506     1.03897944     0.00000000
     0.00000000     0.00000000     1.99262429
New lattice vectors in INITIAL alat:
     1.19971011     0.00000000     0.00000000
    -0.59985506     1.03897944     0.00000000
     0.00000000     0.00000000     1.99262429
New lattice vectors in NEW alat (for information only):
     1.00000000     0.00000000     0.00000000
    -0.50000000     0.86602540     0.00000000
     0.00000000     0.00000000     1.66092147
Discrepancy in bohr =     0.000000    0.000000    0.000000

Atomic positions rescaled with new alat:
Hf            0.0000000000        0.0000000000        0.0000000000
Hf            0.0000000000        0.5773502692        0.8304607357
     new conv_thr            =       0.0000010000 Ry

     new unit-cell volume =    226.33214 a.u.^3 (    33.53896 Ang^3 )
     density =     17.67395 g/cm^3

CELL_PARAMETERS (alat=  4.50000000)
   1.199710114   0.000000000   0.000000000
  -0.599855057   1.038979436   0.000000000
   0.000000000   0.000000000   1.992624288

ATOMIC_POSITIONS (alat)
Hf            0.0000000000        0.0000000000        0.0000000000
Hf            0.0000000000        0.6926529571        0.9963121438

     Writing config-only to output data dir ./temp/Hf.save/
     NEW-OLD atomic charge density approx. for the potential
     extrapolated charge   34.33310, renormalised to   24.00000

[...]

     Energy error            =      6.8E-01 Ry
     Gradient error          =      6.5E-28 Ry/Bohr
     Cell gradient error     =      1.5E+02 kbar

[...]

     enthalpy           old  =    -224.2713206935 Ry
     enthalpy           new  =    -224.9510285463 Ry

     CASE: enthalpy          _new < enthalpy          _old

[...]

     Energy error            =      1.3E-03 Ry
     Gradient error          =      2.8E-28 Ry/Bohr
     Cell gradient error     =      7.1E+00 kbar

     number of scf cycles    =   4
     number of bfgs steps    =   3

     enthalpy           old  =    -224.9557637054 Ry
     enthalpy           new  =    -224.9571026145 Ry

     CASE: enthalpy          _new < enthalpy          _old

     new trust radius        =       0.0024733763 bohr
ibrav =      4
 celldm(1) =      5.29612633
 celldm(3) =      1.66592964
Input lattice vectors:
     1.17691696    -0.00000000    -0.00000000
    -0.58845848     1.01923999    -0.00000000
    -0.00000000    -0.00000000     1.96066085
New lattice vectors in INITIAL alat:
     1.17691696     0.00000000     0.00000000
    -0.58845848     1.01923999     0.00000000
     0.00000000     0.00000000     1.96066085
New lattice vectors in NEW alat (for information only):
     1.00000000     0.00000000     0.00000000
    -0.50000000     0.86602540     0.00000000
     0.00000000     0.00000000     1.66592964
Discrepancy in bohr =     0.000000    0.000000    0.000000

Atomic positions rescaled with new alat:
Hf            0.0000000000       -0.0000000000        0.0000000000
Hf            0.0000000000        0.5773502692        0.8329648213
     new conv_thr            =       0.0000000100 Ry

     new unit-cell volume =    214.31980 a.u.^3 (    31.75892 Ang^3 )
     density =     18.66455 g/cm^3

[...]

ATOMIC_POSITIONS (alat)
Hf            0.0000000000       -0.0000000000        0.0000000000
Hf            0.0000000000        0.6794933244        0.9803304264

     Writing config-only to output data dir ./temp/Hf.save/
     NEW-OLD atomic charge density approx. for the potential
     extrapolated charge   24.04536, renormalised to   24.00000

[...]

     Energy error            =      7.6E-06 Ry
     Gradient error          =      1.3E-28 Ry/Bohr
     Cell gradient error     =      4.4E-01 kbar
ibrav =      4
 celldm(1) =      5.29612633
 celldm(3) =      1.66592964
Input lattice vectors:
     1.17691696     0.00000000     0.00000000
    -0.58845848     1.01923999     0.00000000
     0.00000000     0.00000000     1.96066085
New lattice vectors in INITIAL alat:
     1.17691696     0.00000000     0.00000000
    -0.58845848     1.01923999     0.00000000
     0.00000000     0.00000000     1.96066085
New lattice vectors in NEW alat (for information only):
     1.00000000     0.00000000     0.00000000
    -0.50000000     0.86602540     0.00000000
     0.00000000     0.00000000     1.66592964
Discrepancy in bohr =     0.000000    0.000000    0.000000

Atomic positions rescaled with new alat:
Hf            0.0000000000       -0.0000000000        0.0000000000
Hf            0.0000000000        0.5773502692        0.8329648213

     bfgs converged in   5 scf cycles and   4 bfgs steps
     (criteria: energy <  1.0E-04 Ry, force <  1.0E-03Ry/Bohr, cell <  5.0E-01kbar)

     End of BFGS Geometry Optimization

     Final enthalpy           =    -224.9571102382 Ry

     File ./temp/Hf.bfgs deleted, as requested
Begin final coordinates
     new unit-cell volume =    214.31980 a.u.^3 (    31.75892 Ang^3 )
     density =     18.66455 g/cm^3

CELL_PARAMETERS (alat=  4.50000000)
   1.176916961   0.000000000   0.000000000
  -0.588458481   1.019239987   0.000000000
   0.000000000   0.000000000   1.960660853

ATOMIC_POSITIONS (alat)
Hf            0.0000000000       -0.0000000000        0.0000000000
Hf            0.0000000000        0.6794933244        0.9803304264
End final coordinates

     Writing config-only to output data dir ./temp/Hf.save/

     Final scf calculation at the relaxed structure.
     The G-vectors are recalculated for the final unit cell
     Results may differ from those at the preceding step.

     Using Slab Decomposition

     bravais-lattice index     =            4
     lattice parameter (alat)  =       4.5000  a.u.
     unit-cell volume          =     214.3198 (a.u.)^3
     number of atoms/cell      =            2
     number of atomic types    =            1
     number of electrons       =        24.00
     number of Kohn-Sham states=           16
     kinetic-energy cutoff     =      30.0000  Ry
     charge density cutoff     =     150.0000  Ry
     scf convergence threshold =      1.0E-08
     mixing beta               =       0.7000
     number of iterations used =            8  plain     mixing
     press convergence thresh. =      5.0E-01
     Exchange-correlation= PBE
                           (   1   4   3   4   0   0   0)

     celldm(1)=   4.500000  celldm(2)=   0.000000  celldm(3)=   1.633000
     celldm(4)=   0.000000  celldm(5)=   0.000000  celldm(6)=   0.000000

     crystal axes: (cart. coord. in units of alat)
               a(1) = (   1.176917   0.000000   0.000000 )
               a(2) = (  -0.588458   1.019240   0.000000 )
               a(3) = (   0.000000   0.000000   1.960661 )

     reciprocal axes: (cart. coord. in units 2 pi/alat)
               b(1) = (  0.849678  0.490562 -0.000000 )
               b(2) = (  0.000000  0.981123  0.000000 )
               b(3) = (  0.000000 -0.000000  0.510032 )

     PseudoPot. # 1 for Hf read from file:
     /Users/vinhtran/Documents/GitHub/DFT/pseudos/Hf-sp.oncvpsp.upf
     MD5 check sum: 417ed15784afe83d2e06dacf143de3f8
     Pseudo is Norm-conserving + core correction, Zval = 12.0
     Generated using ONCVPSP code by D. R. Hamann
     Using radial grid of 1656 points,  8 beta functions with:
                l(1) =   0
                l(2) =   0
                l(3) =   1
                l(4) =   1
                l(5) =   2
                l(6) =   2
                l(7) =   3
                l(8) =   3

     atomic species   valence    mass     pseudopotential
        Hf            12.00   178.48600     Hf( 1.00)

     24 Sym. Ops., with inversion, found (12 have fractional translation)

   Cartesian axes

     site n.     atom                  positions (alat units)
         1           Hf  tau(   1) = (   0.0000000  -0.0000000   0.0000000  )
         2           Hf  tau(   2) = (   0.0000000   0.6794933   0.9803304  )

     number of k points=    12  Methfessel-Paxton smearing, width (Ry)=  0.1000
                       cart. coord. in units 2pi/alat
        k(    1) = (   0.1062097   0.1839606   0.0637540), wk =   0.1250000
        k(    2) = (   0.1062097   0.1839606   0.1912620), wk =   0.1250000
        k(    3) = (   0.1062097   0.4292414   0.0637540), wk =   0.2500000
        k(    4) = (   0.1062097   0.4292414   0.1912620), wk =   0.2500000
        k(    5) = (   0.1062097  -0.3066010   0.0637540), wk =   0.2500000
        k(    6) = (   0.1062097  -0.3066010   0.1912620), wk =   0.2500000
        k(    7) = (   0.1062097  -0.0613202   0.0637540), wk =   0.1250000
        k(    8) = (   0.1062097  -0.0613202   0.1912620), wk =   0.1250000
        k(    9) = (   0.3186291   0.5518818   0.0637540), wk =   0.1250000
        k(   10) = (   0.3186291   0.5518818   0.1912620), wk =   0.1250000
        k(   11) = (   0.3186291  -0.1839606   0.0637540), wk =   0.1250000
        k(   12) = (   0.3186291  -0.1839606   0.1912620), wk =   0.1250000

     Initial potential from superposition of free atoms

     starting charge      23.9963, renormalised to      24.0000
     Starting wfcs are   20 randomized atomic wfcs

     Self-consistent Calculation

     iteration #  1     ecut=    30.00 Ry     beta= 0.70
     Davidson diagonalization with overlap
     c_bands:  1 eigenvalues not converged
     ethr =  1.00E-06,  avg # of iterations = 13.4

[...]

     total energy              =    -225.34604449 Ry
     estimated scf accuracy    <       0.00000001 Ry

     iteration #  6     ecut=    30.00 Ry     beta= 0.70
     Davidson diagonalization with overlap
     ethr =  4.96E-11,  avg # of iterations =  2.8

     End of self-consistent calculation

[...]

          k = 0.3186-0.1840 0.1913 (   593 PWs)   bands (ev):

   -39.6330 -39.5690  -9.7611  -9.5998  -8.5424  -8.2363  -8.1663  -8.0570
    16.4508  17.2349  19.0731  19.7454  22.9126  23.7102  23.9537  26.1359

     the Fermi energy is    21.1105 ev

!    total energy              =    -225.34604449 Ry
     estimated scf accuracy    <          6.6E-10 Ry
     smearing contrib. (-TS)   =       0.00396682 Ry
     internal energy E=F+TS    =    -225.35001131 Ry

     The total energy is F=E-TS. E is the sum of the following terms:
     one-electron contribution =     -14.03344545 Ry
     hartree contribution      =      21.53677101 Ry
     xc contribution           =     -57.74108377 Ry
     ewald contribution        =    -175.11225310 Ry

     convergence has been achieved in   6 iterations

     Forces acting on atoms (cartesian axes, Ry/au):

     atom    1 type  1   force =     0.00000000    0.00000000    0.00000000
     atom    2 type  1   force =     0.00000000   -0.00000000    0.00000000

     Total force =     0.000000     Total SCF correction =     0.000000

     Computing stress (Cartesian axis) and pressure

          total   stress  (Ry/bohr**3)                   (kbar)     P=      298.23
   0.00196148  -0.00000000   0.00000000          288.54       -0.00        0.00
  -0.00000000   0.00196148   0.00000000           -0.00      288.54        0.00
  -0.00000000  -0.00000000   0.00215896           -0.00       -0.00      317.59

     Writing all to output data dir ./temp/Hf.save/

     General routines

     Parallel routines

   This run was terminated on:  21:20:53  21Mar2022

   JOB DONE.