     Program PWSCF v.7.0 starts on 21Mar2022 at 21:12:26

     Reading input from Hf.sci.in

     Current dimensions of program PWSCF are:
     Max number of different atomic species (ntypx) = 10
     Max number of k-points (npk) =  40000
     Max angular momentum in pseudopotentials (lmaxx) =  4

     File ./temp/Hf.update deleted, as requested

     File ./temp/Hf.bfgs deleted, as requested
     Message from routine setup:
     using ibrav=0 with symmetry is DISCOURAGED, use correct ibrav instead

     Subspace diagonalization in iterative solution of the eigenvalue problem:
     a serial algorithm will be used

     Using Slab Decomposition

     bravais-lattice index     =            0
     lattice parameter (alat)  =       4.5000  a.u.
     unit-cell volume          =     128.8707 (a.u.)^3
     number of atoms/cell      =            2
     number of atomic types    =            1
     number of electrons       =        24.00
     number of Kohn-Sham states=           16
     kinetic-energy cutoff     =      30.0000  Ry
     charge density cutoff     =     150.0000  Ry
     scf convergence threshold =      1.0E-06
     mixing beta               =       0.7000
     number of iterations used =            8  plain     mixing
     energy convergence thresh.=      1.0E-04
     force convergence thresh. =      1.0E-03
     press convergence thresh. =      5.0E-01
     Exchange-correlation= PBE
                           (   1   4   3   4   0   0   0)
     nstep                     =           50

     celldm(1)=   4.500000  celldm(2)=   0.000000  celldm(3)=   0.000000
     celldm(4)=   0.000000  celldm(5)=   0.000000  celldm(6)=   0.000000

     crystal axes: (cart. coord. in units of alat)
               a(1) = (   1.000000   0.000000   0.000000 )
               a(2) = (  -0.500000   0.866025   0.000000 )
               a(3) = (   0.000000   0.000000   1.633000 )

     reciprocal axes: (cart. coord. in units 2 pi/alat)
               b(1) = (  1.000000  0.577351 -0.000000 )
               b(2) = (  0.000000  1.154701  0.000000 )
               b(3) = (  0.000000 -0.000000  0.612370 )

     PseudoPot. # 1 for Hf read from file:
     /Users/vinhtran/Documents/GitHub/DFT/pseudos/Hf-sp.oncvpsp.upf
     MD5 check sum: 417ed15784afe83d2e06dacf143de3f8
     Pseudo is Norm-conserving + core correction, Zval = 12.0
     Generated using ONCVPSP code by D. R. Hamann
     Using radial grid of 1656 points,  8 beta functions with:
                l(1) =   0
                l(2) =   0
                l(3) =   1
                l(4) =   1
                l(5) =   2
                l(6) =   2
                l(7) =   3
                l(8) =   3

     atomic species   valence    mass     pseudopotential
        Hf            12.00   178.48600     Hf( 1.00)

      8 Sym. Ops., with inversion, found ( 4 have fractional translation)

   Cartesian axes

     site n.     atom                  positions (alat units)
         1           Hf  tau(   1) = (   0.0000000   0.0000000   0.0000000  )
         2           Hf  tau(   2) = (   0.5000000   0.5773503   0.8165000  )

     number of k points=    28  Methfessel-Paxton smearing, width (Ry)=  0.1000
                       cart. coord. in units 2pi/alat
        k(    1) = (   0.1250000   0.2165065   0.0765462), wk =   0.0833333
        k(    2) = (   0.1250000   0.2165065   0.2296387), wk =   0.0833333
        k(    3) = (   0.1250000   0.5051817   0.0765462), wk =   0.0833333
        k(    4) = (   0.1250000   0.5051817   0.2296387), wk =   0.0833333
        k(    5) = (   0.1250000  -0.3608441   0.0765462), wk =   0.0833333
        k(    6) = (   0.1250000  -0.3608441   0.2296387), wk =   0.0833333
        k(    7) = (   0.1250000  -0.0721688   0.0765462), wk =   0.0833333
        k(    8) = (   0.1250000  -0.0721688   0.2296387), wk =   0.0833333
        k(    9) = (   0.3750000   0.6495194   0.0765462), wk =   0.0833333
        k(   10) = (   0.3750000   0.6495194   0.2296387), wk =   0.0833333
        k(   11) = (   0.3750000  -0.2165065   0.0765462), wk =   0.0833333
        k(   12) = (   0.3750000  -0.2165065   0.2296387), wk =   0.0833333
        k(   13) = (   0.2500000   0.0000000  -0.0765462), wk =   0.0416667
        k(   14) = (   0.2500000   0.0000000  -0.2296387), wk =   0.0416667
        k(   15) = (  -0.3750000  -0.3608441  -0.0765462), wk =   0.0833333
        k(   16) = (   0.5000000  -0.1443376  -0.0765462), wk =   0.0833333
        k(   17) = (  -0.3750000  -0.3608441  -0.2296387), wk =   0.0833333
        k(   18) = (   0.5000000  -0.1443376  -0.2296387), wk =   0.0833333
        k(   19) = (   0.3750000   0.0721688  -0.0765462), wk =   0.0833333
        k(   20) = (  -0.2500000   0.2886753  -0.0765462), wk =   0.0833333
        k(   21) = (   0.3750000   0.0721688  -0.2296387), wk =   0.0833333
        k(   22) = (  -0.2500000   0.2886753  -0.2296387), wk =   0.0833333
        k(   23) = (   0.0000000   0.1443376  -0.0765462), wk =   0.0416667
        k(   24) = (   0.0000000   0.1443376  -0.2296387), wk =   0.0416667
        k(   25) = (   0.7500000   0.0000000  -0.0765462), wk =   0.0416667
        k(   26) = (   0.7500000   0.0000000  -0.2296387), wk =   0.0416667
        k(   27) = (   0.0000000   0.4330129  -0.0765462), wk =   0.0416667
        k(   28) = (   0.0000000   0.4330129  -0.2296387), wk =   0.0416667

     Initial potential from superposition of free atoms

     starting charge      23.9963, renormalised to      24.0000
     Starting wfcs are   20 randomized atomic wfcs

     Self-consistent Calculation

     iteration #  1     ecut=    30.00 Ry     beta= 0.70
     Davidson diagonalization with overlap
     ethr =  1.00E-02,  avg # of iterations =  2.3

     Threshold (ethr) on eigenvalues was too large:
     Diagonalizing with lowered threshold

     Davidson diagonalization with overlap
     ethr =  1.33E-04,  avg # of iterations =  2.4

     total energy              =    -224.21171428 Ry
     estimated scf accuracy    <       0.03424009 Ry

[...]

     End of self-consistent calculation

          k = 0.1250 0.2165 0.0765 (   357 PWs)   bands (ev):

   -27.2968 -25.2330  -0.5464   4.3365   5.3637   6.6471   7.5551   9.0758
    31.1806  31.8362  32.9966  33.6116  35.0279  36.8199  38.7594  41.0117

[...]

          k =-0.3750-0.3608-0.0765 (   360 PWs)   bands (ev):

[...]

     the Fermi energy is    35.1319 ev

!    total energy              =    -224.21740812 Ry
     estimated scf accuracy    <       0.00000026 Ry
     smearing contrib. (-TS)   =       0.00750145 Ry
     internal energy E=F+TS    =    -224.22490957 Ry

     The total energy is F=E-TS. E is the sum of the following terms:
     one-electron contribution =      28.11870190 Ry
     hartree contribution      =      13.19328610 Ry
     xc contribution           =     -59.40709634 Ry
     ewald contribution        =    -206.12980123 Ry

     convergence has been achieved in   4 iterations

     Forces acting on atoms (cartesian axes, Ry/au):

     atom    1 type  1   force =     0.00000000    0.21819955    0.00000000
     atom    2 type  1   force =     0.00000000   -0.21819955    0.00000000

     Total force =     0.308581     Total SCF correction =     0.000515

     Computing stress (Cartesian axis) and pressure

          total   stress  (Ry/bohr**3)                   (kbar)     P=     3660.34
   0.02121807   0.00000000   0.00000000         3121.29        0.00        0.00
   0.00000000   0.02397972  -0.00000000            0.00     3527.54       -0.00
   0.00000000   0.00000000   0.02944973            0.00        0.00     4332.20

     BFGS Geometry Optimization
     Energy error            =      0.0E+00 Ry
     Gradient error          =      2.2E-01 Ry/Bohr
     Cell gradient error     =      4.3E+03 kbar

     number of scf cycles    =   1
     number of bfgs steps    =   0

     enthalpy           new  =    -224.2174081164 Ry

     new trust radius        =       0.5000000000 bohr
WARNING! With ibrav=0, cell_dofree='ibrav' has no effect.

Atomic positions rescaled with new alat:
Hf                     NaN            Infinity                 NaN
Hf                Infinity            Infinity            Infinity
     new conv_thr            =       0.0000010000 Ry

     new unit-cell volume =    214.87376 a.u.^3 (    31.84101 Ang^3 )
     density =     18.61643 g/cm^3

CELL_PARAMETERS (alat=  4.50000000)
   1.158667344   0.000000000   0.000000000
  -0.579333672   1.021319546   0.000000000
   0.000000000  -0.000000000   1.992624371

ATOMIC_POSITIONS (alat)
Hf            0.0000000000        0.0171046506        0.0000000000
Hf            0.5793336719        0.6637753642        0.9963121857

     Writing config-only to output data dir ./temp/Hf.save/
     NEW-OLD atomic charge density approx. for the potential
     extrapolated charge   33.60450, renormalised to   24.00000

[...]

     Energy error            =      7.1E-01 Ry
     Gradient error          =      6.2E-02 Ry/Bohr
     Cell gradient error     =      7.0E+01 kbar

[...]

     enthalpy           old  =    -224.2174081164 Ry
     enthalpy           new  =    -224.9319674324 Ry

     CASE: enthalpy          _new < enthalpy          _old

[...]

Atomic positions rescaled with new alat:
Hf                     NaN            Infinity           -Infinity
Hf                Infinity            Infinity            Infinity
     new conv_thr            =       0.0000006183 Ry

[...]

Atomic positions rescaled with new alat:
Hf                Infinity            Infinity           -Infinity
Hf                Infinity            Infinity            Infinity
     new conv_thr            =       0.0000004890 Ry

[...]

     iteration #  1     ecut=    30.00 Ry     beta= 0.70
     Davidson diagonalization with overlap
     c_bands:  1 eigenvalues not converged
     ethr =  1.00E-06,  avg # of iterations =  9.5

[...]

Atomic positions rescaled with new alat:
Hf                Infinity            Infinity           -Infinity
Hf                Infinity            Infinity            Infinity
     new conv_thr            =       0.0000000829 Ry

[...]

Atomic positions rescaled with new alat:
Hf               -Infinity            Infinity           -Infinity
Hf                Infinity            Infinity            Infinity
     new conv_thr            =       0.0000000348 Ry

[...]

     Total force =     0.000048     Total SCF correction =     0.000016
     SCF correction compared to forces is large: reduce conv_thr to get better values

[...]

     Energy error            =      1.2E-06 Ry
     Gradient error          =      3.4E-05 Ry/Bohr
     Cell gradient error     =      9.1E-01 kbar

     number of scf cycles    =   9
     number of bfgs steps    =   8

     enthalpy           old  =    -224.9585954173 Ry
     enthalpy           new  =    -224.9585966387 Ry

     CASE: enthalpy          _new < enthalpy          _old

     new trust radius        =       0.0003826943 bohr
WARNING! With ibrav=0, cell_dofree='ibrav' has no effect.

Atomic positions rescaled with new alat:
Hf               -Infinity            Infinity           -Infinity
Hf                Infinity            Infinity            Infinity
     new conv_thr            =       0.0000000100 Ry

     new unit-cell volume =    213.64393 a.u.^3 (    31.65876 Ang^3 )
     density =     18.72360 g/cm^3

[...]

ATOMIC_POSITIONS (alat)
Hf           -0.0000000000        0.1116856266       -0.0000000000
Hf            0.5798533735        0.5772303266        0.9781772155

     Writing config-only to output data dir ./temp/Hf.save/
     NEW-OLD atomic charge density approx. for the potential
     extrapolated charge   23.99810, renormalised to   24.00000

[...]

     Threshold (ethr) on eigenvalues was too large:
     Diagonalizing with lowered threshold

     Davidson diagonalization with overlap
     ethr =  4.39E-10,  avg # of iterations =  3.5

[...]

     Total force =     0.000005     Total SCF correction =     0.000006
     SCF correction compared to forces is large: reduce conv_thr to get better values

[...]

     Energy error            =      7.5E-08 Ry
     Gradient error          =      3.2E-06 Ry/Bohr
     Cell gradient error     =      1.6E-01 kbar
WARNING! With ibrav=0, cell_dofree='ibrav' has no effect.

Atomic positions rescaled with new alat:
Hf               -Infinity            Infinity           -Infinity
Hf                Infinity            Infinity            Infinity

     bfgs converged in  10 scf cycles and   9 bfgs steps
     (criteria: energy <  1.0E-04 Ry, force <  1.0E-03Ry/Bohr, cell <  5.0E-01kbar)

     End of BFGS Geometry Optimization

     Final enthalpy           =    -224.9585967134 Ry

     File ./temp/Hf.bfgs deleted, as requested
Begin final coordinates
     new unit-cell volume =    213.64393 a.u.^3 (    31.65876 Ang^3 )
     density =     18.72360 g/cm^3

CELL_PARAMETERS (alat=  4.50000000)
   1.159706747   0.000000000   0.000000000
  -0.579853374   1.033373448  -0.000000000
  -0.000000000   0.000000000   1.956354431

ATOMIC_POSITIONS (alat)
Hf           -0.0000000000        0.1116856266       -0.0000000000
Hf            0.5798533735        0.5772303266        0.9781772155
End final coordinates

     Writing config-only to output data dir ./temp/Hf.save/

     Final scf calculation at the relaxed structure.
     The G-vectors are recalculated for the final unit cell
     Results may differ from those at the preceding step.

     Using Slab Decomposition

     bravais-lattice index     =            0
     lattice parameter (alat)  =       4.5000  a.u.
     unit-cell volume          =     213.6439 (a.u.)^3
     number of atoms/cell      =            2
     number of atomic types    =            1
     number of electrons       =        24.00
     number of Kohn-Sham states=           16
     kinetic-energy cutoff     =      30.0000  Ry
     charge density cutoff     =     150.0000  Ry
     scf convergence threshold =      1.0E-08
     mixing beta               =       0.7000
     number of iterations used =            8  plain     mixing
     press convergence thresh. =      5.0E-01
     Exchange-correlation= PBE
                           (   1   4   3   4   0   0   0)

     celldm(1)=   4.500000  celldm(2)=   0.000000  celldm(3)=   0.000000
     celldm(4)=   0.000000  celldm(5)=   0.000000  celldm(6)=   0.000000

     crystal axes: (cart. coord. in units of alat)
               a(1) = (   1.159707   0.000000   0.000000 )
               a(2) = (  -0.579853   1.033373  -0.000000 )
               a(3) = (  -0.000000   0.000000   1.956354 )

     reciprocal axes: (cart. coord. in units 2 pi/alat)
               b(1) = (  0.862287  0.483852 -0.000000 )
               b(2) = ( -0.000000  0.967704 -0.000000 )
               b(3) = ( -0.000000  0.000000  0.511155 )

     PseudoPot. # 1 for Hf read from file:
     /Users/vinhtran/Documents/GitHub/DFT/pseudos/Hf-sp.oncvpsp.upf
     MD5 check sum: 417ed15784afe83d2e06dacf143de3f8
     Pseudo is Norm-conserving + core correction, Zval = 12.0
     Generated using ONCVPSP code by D. R. Hamann
     Using radial grid of 1656 points,  8 beta functions with:
                l(1) =   0
                l(2) =   0
                l(3) =   1
                l(4) =   1
                l(5) =   2
                l(6) =   2
                l(7) =   3
                l(8) =   3

     atomic species   valence    mass     pseudopotential
        Hf            12.00   178.48600     Hf( 1.00)

      8 Sym. Ops., with inversion, found ( 4 have fractional translation)

   Cartesian axes

     site n.     atom                  positions (alat units)
         1           Hf  tau(   1) = (  -0.0000000   0.1116856  -0.0000000  )
         2           Hf  tau(   2) = (   0.5798534   0.5772303   0.9781772  )

     number of k points=    28  Methfessel-Paxton smearing, width (Ry)=  0.1000
                       cart. coord. in units 2pi/alat
        k(    1) = (   0.1077859   0.1814446   0.0638944), wk =   0.0833333
        k(    2) = (   0.1077859   0.1814446   0.1916831), wk =   0.0833333
        k(    3) = (   0.1077859   0.4233707   0.0638944), wk =   0.0833333
        k(    4) = (   0.1077859   0.4233707   0.1916831), wk =   0.0833333
        k(    5) = (   0.1077859  -0.3024076   0.0638944), wk =   0.0833333
        k(    6) = (   0.1077859  -0.3024076   0.1916831), wk =   0.0833333
        k(    7) = (   0.1077859  -0.0604815   0.0638944), wk =   0.0833333
        k(    8) = (   0.1077859  -0.0604815   0.1916831), wk =   0.0833333
        k(    9) = (   0.3233576   0.5443337   0.0638944), wk =   0.0833333
        k(   10) = (   0.3233576   0.5443337   0.1916831), wk =   0.0833333
        k(   11) = (   0.3233576  -0.1814446   0.0638944), wk =   0.0833333
        k(   12) = (   0.3233576  -0.1814446   0.1916831), wk =   0.0833333
        k(   13) = (   0.2155717  -0.0000000  -0.0638944), wk =   0.0416667
        k(   14) = (   0.2155717  -0.0000000  -0.1916831), wk =   0.0416667
        k(   15) = (  -0.3233576  -0.3024076  -0.0638944), wk =   0.0833333
        k(   16) = (   0.4311435  -0.1209630  -0.0638944), wk =   0.0833333
        k(   17) = (  -0.3233576  -0.3024076  -0.1916831), wk =   0.0833333
        k(   18) = (   0.4311435  -0.1209630  -0.1916831), wk =   0.0833333
        k(   19) = (   0.3233576   0.0604815  -0.0638944), wk =   0.0833333
        k(   20) = (  -0.2155717   0.2419261  -0.0638944), wk =   0.0833333
        k(   21) = (   0.3233576   0.0604815  -0.1916831), wk =   0.0833333
        k(   22) = (  -0.2155717   0.2419261  -0.1916831), wk =   0.0833333
        k(   23) = (  -0.0000000   0.1209630  -0.0638944), wk =   0.0416667
        k(   24) = (  -0.0000000   0.1209630  -0.1916831), wk =   0.0416667
        k(   25) = (   0.6467152  -0.0000000  -0.0638944), wk =   0.0416667
        k(   26) = (   0.6467152  -0.0000000  -0.1916831), wk =   0.0416667
        k(   27) = (  -0.0000000   0.3628891  -0.0638944), wk =   0.0416667
        k(   28) = (  -0.0000000   0.3628891  -0.1916831), wk =   0.0416667

     Initial potential from superposition of free atoms

     starting charge      23.9963, renormalised to      24.0000
     Starting wfcs are   20 randomized atomic wfcs

     Self-consistent Calculation

     iteration #  1     ecut=    30.00 Ry     beta= 0.70
     Davidson diagonalization with overlap
     c_bands:  1 eigenvalues not converged
     c_bands:  1 eigenvalues not converged
     c_bands:  1 eigenvalues not converged
     ethr =  1.00E-06,  avg # of iterations = 13.4

[...]

     total energy              =    -225.34393486 Ry
     estimated scf accuracy    <       0.00000001 Ry

     iteration #  6     ecut=    30.00 Ry     beta= 0.70
     Davidson diagonalization with overlap
     ethr =  4.64E-11,  avg # of iterations =  3.0

     End of self-consistent calculation

[...]

          k = 0.6467-0.0000-0.1917 (   580 PWs)   bands (ev):

[...]

          k =-0.0000 0.3629-0.1917 (   592 PWs)   bands (ev):

   -39.5873 -39.5442  -9.7849  -9.6721  -8.3731  -8.0766  -8.0701  -7.9115
    16.4315  17.0315  19.0457  20.0057  22.9859  23.2084  24.3755  26.3795

     the Fermi energy is    21.1112 ev

!    total energy              =    -225.34393486 Ry
     estimated scf accuracy    <          5.5E-10 Ry
     smearing contrib. (-TS)   =       0.00081034 Ry
     internal energy E=F+TS    =    -225.34474520 Ry

     The total energy is F=E-TS. E is the sum of the following terms:
     one-electron contribution =     -13.90590139 Ry
     hartree contribution      =      21.52037874 Ry
     xc contribution           =     -57.74970995 Ry
     ewald contribution        =    -175.20951260 Ry

     convergence has been achieved in   6 iterations

     Forces acting on atoms (cartesian axes, Ry/au):

     atom    1 type  1   force =    -0.00000000    0.00246746   -0.00000000
     atom    2 type  1   force =     0.00000000   -0.00246746    0.00000000

     Total force =     0.003490     Total SCF correction =     0.000004

     Computing stress (Cartesian axis) and pressure

          total   stress  (Ry/bohr**3)                   (kbar)     P=      297.56
   0.00181837   0.00000000  -0.00000000          267.49        0.00       -0.00
  -0.00000000   0.00209948   0.00000000           -0.00      308.84        0.00
  -0.00000000   0.00000000   0.00215054           -0.00        0.00      316.36

     Writing all to output data dir ./temp/Hf.save/

     General routines

     Parallel routines

   This run was terminated on:  21:13: 6  21Mar2022

   JOB DONE.